(set-info :original "/var/folders/xz/sgqbj6yn0yv_1mpy6_jqympm0000gn/T/sea-YlVH3c/commut.pp.ms.o.bc")
(set-info :authors "SeaHorn v.0.1.0-rc3")
(declare-rel verifier.error (Bool Bool Bool ))
(declare-rel main@entry (Int ))
(declare-rel main@_bb8 (Int Int Int (Array Int Int) Int Int Int Int (Array Int Int) (Array Int Int) (Array Int Int) ))
(declare-rel main@_bb10 (Int Int (Array Int Int) Int Int (Array Int Int) Int Int Int (Array Int Int) (Array Int Int) ))
(declare-rel main@_bb12 (Int (Array Int Int) Int (Array Int Int) Int Int (Array Int Int) Int Int (Array Int Int) ))
(declare-rel main@_bb14 (Int (Array Int Int) Int (Array Int Int) Int (Array Int Int) Int Int (Array Int Int) Int ))
(declare-rel main@_bb16 (Int (Array Int Int) Int (Array Int Int) Int Int ))
(declare-rel main@verifier.error.split ())
(declare-var main@%_11_0 Int )
(declare-var main@%_12_0 Int )
(declare-var main@%_13_0 Int )
(declare-var main@%_18_0 Int )
(declare-var main@%_19_0 Int )
(declare-var main@%_20_0 Int )
(declare-var main@%_25_0 Int )
(declare-var main@%_26_0 Int )
(declare-var main@%_27_0 Int )
(declare-var main@%_28_0 Int )
(declare-var main@%_29_0 Int )
(declare-var main@%_30_0 Int )
(declare-var main@%_35_0 Int )
(declare-var main@%_36_0 Int )
(declare-var main@%_37_0 Int )
(declare-var main@%_38_0 Int )
(declare-var main@%_39_0 Int )
(declare-var main@%_40_0 Int )
(declare-var main@%_45_0 Int )
(declare-var main@%_46_0 Int )
(declare-var main@%_47_0 Int )
(declare-var main@%_48_0 Int )
(declare-var main@%_49_0 Bool )
(declare-var main@%_50_0 Int )
(declare-var main@%_51_0 Bool )
(declare-var main@%_43_0 Bool )
(declare-var main@%_33_0 Bool )
(declare-var main@%_23_0 Bool )
(declare-var main@%_16_0 Bool )
(declare-var main@%_9_0 Bool )
(declare-var main@%_0_0 Int )
(declare-var main@%_2_0 Bool )
(declare-var @__VERIFIER_nondet_int_0 Int )
(declare-var main@entry_0 Bool )
(declare-var main@%sm4_0 (Array Int Int) )
(declare-var main@%sm5_0 (Array Int Int) )
(declare-var main@%sm6_0 (Array Int Int) )
(declare-var main@%sm7_0 (Array Int Int) )
(declare-var main@%_1_0 Int )
(declare-var main@_bb_0 Bool )
(declare-var main@%_4_0 Int )
(declare-var main@%_5_0 Int )
(declare-var main@%_6_0 Int )
(declare-var main@%_7_0 Int )
(declare-var main@_bb8_0 Bool )
(declare-var main@%shadow.mem.0.0_0 (Array Int Int) )
(declare-var main@%.0.i.i_0 Int )
(declare-var main@%shadow.mem.0.0_1 (Array Int Int) )
(declare-var main@%.0.i.i_1 Int )
(declare-var main@_bb9_0 Bool )
(declare-var main@%sm_0 (Array Int Int) )
(declare-var main@%_14_0 Int )
(declare-var main@_bb8_1 Bool )
(declare-var main@%shadow.mem.0.0_2 (Array Int Int) )
(declare-var main@%.0.i.i_2 Int )
(declare-var main@init.exit.i_0 Bool )
(declare-var main@_bb10_0 Bool )
(declare-var main@%shadow.mem.4.0_0 (Array Int Int) )
(declare-var main@%.0.i2.i_0 Int )
(declare-var main@%shadow.mem.4.0_1 (Array Int Int) )
(declare-var main@%.0.i2.i_1 Int )
(declare-var main@_bb11_0 Bool )
(declare-var main@%sm1_0 (Array Int Int) )
(declare-var main@%_21_0 Int )
(declare-var main@_bb10_1 Bool )
(declare-var main@%shadow.mem.4.0_2 (Array Int Int) )
(declare-var main@%.0.i2.i_2 Int )
(declare-var main@init.exit3.i_0 Bool )
(declare-var main@_bb12_0 Bool )
(declare-var main@%shadow.mem.8.0_0 (Array Int Int) )
(declare-var main@%.0.i4.i_0 Int )
(declare-var main@%shadow.mem.8.0_1 (Array Int Int) )
(declare-var main@%.0.i4.i_1 Int )
(declare-var main@_bb13_0 Bool )
(declare-var main@%sm2_0 (Array Int Int) )
(declare-var main@%_31_0 Int )
(declare-var main@_bb12_1 Bool )
(declare-var main@%shadow.mem.8.0_2 (Array Int Int) )
(declare-var main@%.0.i4.i_2 Int )
(declare-var main@vec_add.exit.i_0 Bool )
(declare-var main@_bb14_0 Bool )
(declare-var main@%shadow.mem.12.0_0 (Array Int Int) )
(declare-var main@%.0.i5.i_0 Int )
(declare-var main@%shadow.mem.12.0_1 (Array Int Int) )
(declare-var main@%.0.i5.i_1 Int )
(declare-var main@_bb15_0 Bool )
(declare-var main@%sm3_0 (Array Int Int) )
(declare-var main@%_41_0 Int )
(declare-var main@_bb14_1 Bool )
(declare-var main@%shadow.mem.12.0_2 (Array Int Int) )
(declare-var main@%.0.i5.i_2 Int )
(declare-var main@vec_add.exit6.i_0 Bool )
(declare-var main@_bb16_0 Bool )
(declare-var main@%.01.i_0 Int )
(declare-var main@%.01.i_1 Int )
(declare-var main@_bb17_0 Bool )
(declare-var main@__JVERIFIER_assert.exit.i_0 Bool )
(declare-var main@%_53_0 Int )
(declare-var main@_bb16_1 Bool )
(declare-var main@%.01.i_2 Int )
(declare-var main@_bb18_0 Bool )
(declare-var main@verifier.error_0 Bool )
(declare-var main@verifier.error.split_0 Bool )
(rule (verifier.error false false false))
(rule (verifier.error false true true))
(rule (verifier.error true false true))
(rule (verifier.error true true true))
(rule (main@entry @__VERIFIER_nondet_int_0))
(rule (=> (and (main@entry @__VERIFIER_nondet_int_0)
         true
         (= main@%_0_0 @__VERIFIER_nondet_int_0)
         (= main@%_2_0 (< main@%_1_0 1))
         (not main@%_2_0)
         (=> main@_bb_0 (and main@_bb_0 main@entry_0))
         (=> main@_bb_0 (> main@%_4_0 0))
         (=> main@_bb_0 (> main@%_5_0 0))
         (=> main@_bb_0 (> main@%_6_0 0))
         (=> main@_bb_0 (> main@%_7_0 0))
         (=> main@_bb8_0 (and main@_bb8_0 main@_bb_0))
         (=> (and main@_bb8_0 main@_bb_0)
             (= main@%shadow.mem.0.0_0 main@%sm4_0))
         (=> (and main@_bb8_0 main@_bb_0) (= main@%.0.i.i_0 0))
         (=> (and main@_bb8_0 main@_bb_0)
             (= main@%shadow.mem.0.0_1 main@%shadow.mem.0.0_0))
         (=> (and main@_bb8_0 main@_bb_0) (= main@%.0.i.i_1 main@%.0.i.i_0))
         main@_bb8_0)
    (main@_bb8 @__VERIFIER_nondet_int_0
               main@%_4_0
               main@%.0.i.i_1
               main@%shadow.mem.0.0_1
               main@%_5_0
               main@%_6_0
               main@%_7_0
               main@%_1_0
               main@%sm6_0
               main@%sm7_0
               main@%sm5_0)))
(rule (let ((a!1 (=> main@_bb9_0 (= main@%_13_0 (+ main@%_4_0 (* main@%.0.i.i_0 4))))))
(let ((a!2 (and (main@_bb8 @__VERIFIER_nondet_int_0
                           main@%_4_0
                           main@%.0.i.i_0
                           main@%shadow.mem.0.0_0
                           main@%_5_0
                           main@%_6_0
                           main@%_7_0
                           main@%_1_0
                           main@%sm6_0
                           main@%sm7_0
                           main@%sm5_0)
                true
                (= main@%_9_0 (< main@%.0.i.i_0 main@%_1_0))
                (=> main@_bb9_0 (and main@_bb9_0 main@_bb8_0))
                (=> (and main@_bb9_0 main@_bb8_0) main@%_9_0)
                (=> main@_bb9_0 (= main@%_11_0 @__VERIFIER_nondet_int_0))
                a!1
                (=> main@_bb9_0 (or (<= main@%_4_0 0) (> main@%_13_0 0)))
                (=> main@_bb9_0 (> main@%_4_0 0))
                (=> main@_bb9_0
                    (= main@%sm_0
                       (store main@%shadow.mem.0.0_0 main@%_13_0 main@%_12_0)))
                (=> main@_bb9_0 (= main@%_14_0 (+ main@%.0.i.i_0 1)))
                (=> main@_bb8_1 (and main@_bb8_1 main@_bb9_0))
                (=> (and main@_bb8_1 main@_bb9_0)
                    (= main@%shadow.mem.0.0_1 main@%sm_0))
                (=> (and main@_bb8_1 main@_bb9_0)
                    (= main@%.0.i.i_1 main@%_14_0))
                (=> (and main@_bb8_1 main@_bb9_0)
                    (= main@%shadow.mem.0.0_2 main@%shadow.mem.0.0_1))
                (=> (and main@_bb8_1 main@_bb9_0)
                    (= main@%.0.i.i_2 main@%.0.i.i_1))
                main@_bb8_1)))
  (=> a!2
      (main@_bb8 @__VERIFIER_nondet_int_0
                 main@%_4_0
                 main@%.0.i.i_2
                 main@%shadow.mem.0.0_2
                 main@%_5_0
                 main@%_6_0
                 main@%_7_0
                 main@%_1_0
                 main@%sm6_0
                 main@%sm7_0
                 main@%sm5_0)))))
(rule (=> (and (main@_bb8 @__VERIFIER_nondet_int_0
                    main@%_4_0
                    main@%.0.i.i_0
                    main@%shadow.mem.0.0_0
                    main@%_5_0
                    main@%_6_0
                    main@%_7_0
                    main@%_1_0
                    main@%sm6_0
                    main@%sm7_0
                    main@%sm5_0)
         true
         (= main@%_9_0 (< main@%.0.i.i_0 main@%_1_0))
         (=> main@init.exit.i_0 (and main@init.exit.i_0 main@_bb8_0))
         (=> (and main@init.exit.i_0 main@_bb8_0) (not main@%_9_0))
         (=> main@_bb10_0 (and main@_bb10_0 main@init.exit.i_0))
         (=> (and main@_bb10_0 main@init.exit.i_0)
             (= main@%shadow.mem.4.0_0 main@%sm5_0))
         (=> (and main@_bb10_0 main@init.exit.i_0) (= main@%.0.i2.i_0 0))
         (=> (and main@_bb10_0 main@init.exit.i_0)
             (= main@%shadow.mem.4.0_1 main@%shadow.mem.4.0_0))
         (=> (and main@_bb10_0 main@init.exit.i_0)
             (= main@%.0.i2.i_1 main@%.0.i2.i_0))
         main@_bb10_0)
    (main@_bb10 @__VERIFIER_nondet_int_0
                main@%_4_0
                main@%shadow.mem.0.0_0
                main@%_5_0
                main@%.0.i2.i_1
                main@%shadow.mem.4.0_1
                main@%_6_0
                main@%_7_0
                main@%_1_0
                main@%sm6_0
                main@%sm7_0)))
(rule (let ((a!1 (=> main@_bb11_0
               (= main@%_20_0 (+ main@%_5_0 (* main@%.0.i2.i_0 4))))))
(let ((a!2 (and (main@_bb10 @__VERIFIER_nondet_int_0
                            main@%_4_0
                            main@%shadow.mem.0.0_0
                            main@%_5_0
                            main@%.0.i2.i_0
                            main@%shadow.mem.4.0_0
                            main@%_6_0
                            main@%_7_0
                            main@%_1_0
                            main@%sm6_0
                            main@%sm7_0)
                true
                (= main@%_16_0 (< main@%.0.i2.i_0 main@%_1_0))
                (=> main@_bb11_0 (and main@_bb11_0 main@_bb10_0))
                (=> (and main@_bb11_0 main@_bb10_0) main@%_16_0)
                (=> main@_bb11_0 (= main@%_18_0 @__VERIFIER_nondet_int_0))
                a!1
                (=> main@_bb11_0 (or (<= main@%_5_0 0) (> main@%_20_0 0)))
                (=> main@_bb11_0 (> main@%_5_0 0))
                (=> main@_bb11_0
                    (= main@%sm1_0
                       (store main@%shadow.mem.4.0_0 main@%_20_0 main@%_19_0)))
                (=> main@_bb11_0 (= main@%_21_0 (+ main@%.0.i2.i_0 1)))
                (=> main@_bb10_1 (and main@_bb10_1 main@_bb11_0))
                (=> (and main@_bb10_1 main@_bb11_0)
                    (= main@%shadow.mem.4.0_1 main@%sm1_0))
                (=> (and main@_bb10_1 main@_bb11_0)
                    (= main@%.0.i2.i_1 main@%_21_0))
                (=> (and main@_bb10_1 main@_bb11_0)
                    (= main@%shadow.mem.4.0_2 main@%shadow.mem.4.0_1))
                (=> (and main@_bb10_1 main@_bb11_0)
                    (= main@%.0.i2.i_2 main@%.0.i2.i_1))
                main@_bb10_1)))
  (=> a!2
      (main@_bb10 @__VERIFIER_nondet_int_0
                  main@%_4_0
                  main@%shadow.mem.0.0_0
                  main@%_5_0
                  main@%.0.i2.i_2
                  main@%shadow.mem.4.0_2
                  main@%_6_0
                  main@%_7_0
                  main@%_1_0
                  main@%sm6_0
                  main@%sm7_0)))))
(rule (=> (and (main@_bb10 @__VERIFIER_nondet_int_0
                     main@%_4_0
                     main@%shadow.mem.0.0_0
                     main@%_5_0
                     main@%.0.i2.i_0
                     main@%shadow.mem.4.0_0
                     main@%_6_0
                     main@%_7_0
                     main@%_1_0
                     main@%sm6_0
                     main@%sm7_0)
         true
         (= main@%_16_0 (< main@%.0.i2.i_0 main@%_1_0))
         (=> main@init.exit3.i_0 (and main@init.exit3.i_0 main@_bb10_0))
         (=> (and main@init.exit3.i_0 main@_bb10_0) (not main@%_16_0))
         (=> main@_bb12_0 (and main@_bb12_0 main@init.exit3.i_0))
         (=> (and main@_bb12_0 main@init.exit3.i_0)
             (= main@%shadow.mem.8.0_0 main@%sm7_0))
         (=> (and main@_bb12_0 main@init.exit3.i_0) (= main@%.0.i4.i_0 0))
         (=> (and main@_bb12_0 main@init.exit3.i_0)
             (= main@%shadow.mem.8.0_1 main@%shadow.mem.8.0_0))
         (=> (and main@_bb12_0 main@init.exit3.i_0)
             (= main@%.0.i4.i_1 main@%.0.i4.i_0))
         main@_bb12_0)
    (main@_bb12 main@%_4_0
                main@%shadow.mem.0.0_0
                main@%_5_0
                main@%shadow.mem.4.0_0
                main@%.0.i4.i_1
                main@%_6_0
                main@%shadow.mem.8.0_1
                main@%_7_0
                main@%_1_0
                main@%sm6_0)))
(rule (let ((a!1 (=> main@_bb13_0
               (= main@%_25_0 (+ main@%_4_0 (* main@%.0.i4.i_0 4)))))
      (a!2 (=> main@_bb13_0
               (= main@%_27_0 (+ main@%_5_0 (* main@%.0.i4.i_0 4)))))
      (a!3 (=> main@_bb13_0
               (= main@%_30_0 (+ main@%_6_0 (* main@%.0.i4.i_0 4))))))
(let ((a!4 (and (main@_bb12 main@%_4_0
                            main@%shadow.mem.0.0_0
                            main@%_5_0
                            main@%shadow.mem.4.0_0
                            main@%.0.i4.i_0
                            main@%_6_0
                            main@%shadow.mem.8.0_0
                            main@%_7_0
                            main@%_1_0
                            main@%sm6_0)
                true
                (= main@%_23_0 (< main@%.0.i4.i_0 main@%_1_0))
                (=> main@_bb13_0 (and main@_bb13_0 main@_bb12_0))
                (=> (and main@_bb13_0 main@_bb12_0) main@%_23_0)
                a!1
                (=> main@_bb13_0 (or (<= main@%_4_0 0) (> main@%_25_0 0)))
                (=> main@_bb13_0 (> main@%_4_0 0))
                (=> main@_bb13_0
                    (= main@%_26_0 (select main@%shadow.mem.0.0_0 main@%_25_0)))
                a!2
                (=> main@_bb13_0 (or (<= main@%_5_0 0) (> main@%_27_0 0)))
                (=> main@_bb13_0 (> main@%_5_0 0))
                (=> main@_bb13_0
                    (= main@%_28_0 (select main@%shadow.mem.4.0_0 main@%_27_0)))
                (=> main@_bb13_0 (= main@%_29_0 (+ main@%_26_0 main@%_28_0)))
                a!3
                (=> main@_bb13_0 (or (<= main@%_6_0 0) (> main@%_30_0 0)))
                (=> main@_bb13_0 (> main@%_6_0 0))
                (=> main@_bb13_0
                    (= main@%sm2_0
                       (store main@%shadow.mem.8.0_0 main@%_30_0 main@%_29_0)))
                (=> main@_bb13_0 (= main@%_31_0 (+ main@%.0.i4.i_0 1)))
                (=> main@_bb12_1 (and main@_bb12_1 main@_bb13_0))
                (=> (and main@_bb12_1 main@_bb13_0)
                    (= main@%shadow.mem.8.0_1 main@%sm2_0))
                (=> (and main@_bb12_1 main@_bb13_0)
                    (= main@%.0.i4.i_1 main@%_31_0))
                (=> (and main@_bb12_1 main@_bb13_0)
                    (= main@%shadow.mem.8.0_2 main@%shadow.mem.8.0_1))
                (=> (and main@_bb12_1 main@_bb13_0)
                    (= main@%.0.i4.i_2 main@%.0.i4.i_1))
                main@_bb12_1)))
  (=> a!4
      (main@_bb12 main@%_4_0
                  main@%shadow.mem.0.0_0
                  main@%_5_0
                  main@%shadow.mem.4.0_0
                  main@%.0.i4.i_2
                  main@%_6_0
                  main@%shadow.mem.8.0_2
                  main@%_7_0
                  main@%_1_0
                  main@%sm6_0)))))
(rule (=> (and (main@_bb12 main@%_4_0
                     main@%shadow.mem.0.0_0
                     main@%_5_0
                     main@%shadow.mem.4.0_0
                     main@%.0.i4.i_0
                     main@%_6_0
                     main@%shadow.mem.8.0_0
                     main@%_7_0
                     main@%_1_0
                     main@%sm6_0)
         true
         (= main@%_23_0 (< main@%.0.i4.i_0 main@%_1_0))
         (=> main@vec_add.exit.i_0 (and main@vec_add.exit.i_0 main@_bb12_0))
         (=> (and main@vec_add.exit.i_0 main@_bb12_0) (not main@%_23_0))
         (=> main@_bb14_0 (and main@_bb14_0 main@vec_add.exit.i_0))
         (=> (and main@_bb14_0 main@vec_add.exit.i_0)
             (= main@%shadow.mem.12.0_0 main@%sm6_0))
         (=> (and main@_bb14_0 main@vec_add.exit.i_0) (= main@%.0.i5.i_0 0))
         (=> (and main@_bb14_0 main@vec_add.exit.i_0)
             (= main@%shadow.mem.12.0_1 main@%shadow.mem.12.0_0))
         (=> (and main@_bb14_0 main@vec_add.exit.i_0)
             (= main@%.0.i5.i_1 main@%.0.i5.i_0))
         main@_bb14_0)
    (main@_bb14 main@%_4_0
                main@%shadow.mem.0.0_0
                main@%_5_0
                main@%shadow.mem.4.0_0
                main@%_6_0
                main@%shadow.mem.8.0_0
                main@%.0.i5.i_1
                main@%_7_0
                main@%shadow.mem.12.0_1
                main@%_1_0)))
(rule (let ((a!1 (=> main@_bb15_0
               (= main@%_35_0 (+ main@%_5_0 (* main@%.0.i5.i_0 4)))))
      (a!2 (=> main@_bb15_0
               (= main@%_37_0 (+ main@%_4_0 (* main@%.0.i5.i_0 4)))))
      (a!3 (=> main@_bb15_0
               (= main@%_40_0 (+ main@%_7_0 (* main@%.0.i5.i_0 4))))))
(let ((a!4 (and (main@_bb14 main@%_4_0
                            main@%shadow.mem.0.0_0
                            main@%_5_0
                            main@%shadow.mem.4.0_0
                            main@%_6_0
                            main@%shadow.mem.8.0_0
                            main@%.0.i5.i_0
                            main@%_7_0
                            main@%shadow.mem.12.0_0
                            main@%_1_0)
                true
                (= main@%_33_0 (< main@%.0.i5.i_0 main@%_1_0))
                (=> main@_bb15_0 (and main@_bb15_0 main@_bb14_0))
                (=> (and main@_bb15_0 main@_bb14_0) main@%_33_0)
                a!1
                (=> main@_bb15_0 (or (<= main@%_5_0 0) (> main@%_35_0 0)))
                (=> main@_bb15_0 (> main@%_5_0 0))
                (=> main@_bb15_0
                    (= main@%_36_0 (select main@%shadow.mem.4.0_0 main@%_35_0)))
                a!2
                (=> main@_bb15_0 (or (<= main@%_4_0 0) (> main@%_37_0 0)))
                (=> main@_bb15_0 (> main@%_4_0 0))
                (=> main@_bb15_0
                    (= main@%_38_0 (select main@%shadow.mem.0.0_0 main@%_37_0)))
                (=> main@_bb15_0 (= main@%_39_0 (+ main@%_36_0 main@%_38_0)))
                a!3
                (=> main@_bb15_0 (or (<= main@%_7_0 0) (> main@%_40_0 0)))
                (=> main@_bb15_0 (> main@%_7_0 0))
                (=> main@_bb15_0
                    (= main@%sm3_0
                       (store main@%shadow.mem.12.0_0 main@%_40_0 main@%_39_0)))
                (=> main@_bb15_0 (= main@%_41_0 (+ main@%.0.i5.i_0 1)))
                (=> main@_bb14_1 (and main@_bb14_1 main@_bb15_0))
                (=> (and main@_bb14_1 main@_bb15_0)
                    (= main@%shadow.mem.12.0_1 main@%sm3_0))
                (=> (and main@_bb14_1 main@_bb15_0)
                    (= main@%.0.i5.i_1 main@%_41_0))
                (=> (and main@_bb14_1 main@_bb15_0)
                    (= main@%shadow.mem.12.0_2 main@%shadow.mem.12.0_1))
                (=> (and main@_bb14_1 main@_bb15_0)
                    (= main@%.0.i5.i_2 main@%.0.i5.i_1))
                main@_bb14_1)))
  (=> a!4
      (main@_bb14 main@%_4_0
                  main@%shadow.mem.0.0_0
                  main@%_5_0
                  main@%shadow.mem.4.0_0
                  main@%_6_0
                  main@%shadow.mem.8.0_0
                  main@%.0.i5.i_2
                  main@%_7_0
                  main@%shadow.mem.12.0_2
                  main@%_1_0)))))
(rule (=> (and (main@_bb14 main@%_4_0
                     main@%shadow.mem.0.0_0
                     main@%_5_0
                     main@%shadow.mem.4.0_0
                     main@%_6_0
                     main@%shadow.mem.8.0_0
                     main@%.0.i5.i_0
                     main@%_7_0
                     main@%shadow.mem.12.0_0
                     main@%_1_0)
         true
         (= main@%_33_0 (< main@%.0.i5.i_0 main@%_1_0))
         (=> main@vec_add.exit6.i_0 (and main@vec_add.exit6.i_0 main@_bb14_0))
         (=> (and main@vec_add.exit6.i_0 main@_bb14_0) (not main@%_33_0))
         (=> main@_bb16_0 (and main@_bb16_0 main@vec_add.exit6.i_0))
         (=> (and main@_bb16_0 main@vec_add.exit6.i_0) (= main@%.01.i_0 0))
         (=> (and main@_bb16_0 main@vec_add.exit6.i_0)
             (= main@%.01.i_1 main@%.01.i_0))
         main@_bb16_0)
    (main@_bb16 main@%_6_0
                main@%shadow.mem.8.0_0
                main@%_7_0
                main@%shadow.mem.12.0_0
                main@%.01.i_1
                main@%_1_0)))
(rule (let ((a!1 (=> main@_bb17_0 (= main@%_45_0 (+ main@%_6_0 (* main@%.01.i_0 4)))))
      (a!2 (=> main@_bb17_0 (= main@%_47_0 (+ main@%_7_0 (* main@%.01.i_0 4))))))
(let ((a!3 (and (main@_bb16 main@%_6_0
                            main@%shadow.mem.8.0_0
                            main@%_7_0
                            main@%shadow.mem.12.0_0
                            main@%.01.i_0
                            main@%_1_0)
                true
                (= main@%_43_0 (< main@%.01.i_0 main@%_1_0))
                main@%_43_0
                (=> main@_bb17_0 (and main@_bb17_0 main@_bb16_0))
                a!1
                (=> main@_bb17_0 (or (<= main@%_6_0 0) (> main@%_45_0 0)))
                (=> main@_bb17_0 (> main@%_6_0 0))
                (=> main@_bb17_0
                    (= main@%_46_0 (select main@%shadow.mem.8.0_0 main@%_45_0)))
                a!2
                (=> main@_bb17_0 (or (<= main@%_7_0 0) (> main@%_47_0 0)))
                (=> main@_bb17_0 (> main@%_7_0 0))
                (=> main@_bb17_0
                    (= main@%_48_0 (select main@%shadow.mem.12.0_0 main@%_47_0)))
                (=> main@_bb17_0 (= main@%_49_0 (= main@%_46_0 main@%_48_0)))
                (=> main@_bb17_0 (= main@%_50_0 (ite main@%_49_0 1 0)))
                (=> main@_bb17_0 (= main@%_51_0 (= main@%_50_0 0)))
                (=> main@__JVERIFIER_assert.exit.i_0
                    (and main@__JVERIFIER_assert.exit.i_0 main@_bb17_0))
                (=> (and main@__JVERIFIER_assert.exit.i_0 main@_bb17_0)
                    (not main@%_51_0))
                (=> main@__JVERIFIER_assert.exit.i_0
                    (= main@%_53_0 (+ main@%.01.i_0 1)))
                (=> main@_bb16_1
                    (and main@_bb16_1 main@__JVERIFIER_assert.exit.i_0))
                (=> (and main@_bb16_1 main@__JVERIFIER_assert.exit.i_0)
                    (= main@%.01.i_1 main@%_53_0))
                (=> (and main@_bb16_1 main@__JVERIFIER_assert.exit.i_0)
                    (= main@%.01.i_2 main@%.01.i_1))
                main@_bb16_1)))
  (=> a!3
      (main@_bb16 main@%_6_0
                  main@%shadow.mem.8.0_0
                  main@%_7_0
                  main@%shadow.mem.12.0_0
                  main@%.01.i_2
                  main@%_1_0)))))
(rule (let ((a!1 (=> main@_bb17_0 (= main@%_45_0 (+ main@%_6_0 (* main@%.01.i_0 4)))))
      (a!2 (=> main@_bb17_0 (= main@%_47_0 (+ main@%_7_0 (* main@%.01.i_0 4))))))
(let ((a!3 (and (main@_bb16 main@%_6_0
                            main@%shadow.mem.8.0_0
                            main@%_7_0
                            main@%shadow.mem.12.0_0
                            main@%.01.i_0
                            main@%_1_0)
                true
                (= main@%_43_0 (< main@%.01.i_0 main@%_1_0))
                main@%_43_0
                (=> main@_bb17_0 (and main@_bb17_0 main@_bb16_0))
                a!1
                (=> main@_bb17_0 (or (<= main@%_6_0 0) (> main@%_45_0 0)))
                (=> main@_bb17_0 (> main@%_6_0 0))
                (=> main@_bb17_0
                    (= main@%_46_0 (select main@%shadow.mem.8.0_0 main@%_45_0)))
                a!2
                (=> main@_bb17_0 (or (<= main@%_7_0 0) (> main@%_47_0 0)))
                (=> main@_bb17_0 (> main@%_7_0 0))
                (=> main@_bb17_0
                    (= main@%_48_0 (select main@%shadow.mem.12.0_0 main@%_47_0)))
                (=> main@_bb17_0 (= main@%_49_0 (= main@%_46_0 main@%_48_0)))
                (=> main@_bb17_0 (= main@%_50_0 (ite main@%_49_0 1 0)))
                (=> main@_bb17_0 (= main@%_51_0 (= main@%_50_0 0)))
                (=> main@_bb18_0 (and main@_bb18_0 main@_bb17_0))
                (=> (and main@_bb18_0 main@_bb17_0) main@%_51_0)
                (=> main@verifier.error_0
                    (and main@verifier.error_0 main@_bb18_0))
                (=> main@verifier.error.split_0
                    (and main@verifier.error.split_0 main@verifier.error_0))
                main@verifier.error.split_0)))
  (=> a!3 main@verifier.error.split))))
(query main@verifier.error.split)

